NAME 
OBJSENSE MAX
ROWS
 N  OBJ
 L  packing[0]
 L  packing[1]
 L  packing[2]
 L  packing[3]
 L  packing[4]
 L  packing[5]
 L  packing[6]
 L  packing[7]
 L  packing[8]
 L  packing[9]
 L  packing[10]
 L  packing[11]
 L  packing[12]
 L  packing[13]
 L  packing[14]
 L  packing[15]
 L  packing[16]
 L  packing[17]
 L  packing[18]
 L  packing[19]
 L  packing[20]
 L  packing[21]
 L  packing[22]
 L  packing[23]
 L  packing[24]
 L  packing[25]
 L  packing[26]
 L  packing[27]
 L  packing[28]
 L  packing[29]
 L  packing[30]
 L  packing[31]
 L  packing[32]
 L  packing[33]
 L  packing[34]
 L  packing[35]
 L  packing[36]
 L  packing[37]
 L  packing[38]
 L  packing[39]
 L  packing[40]
 L  packing[41]
 L  packing[42]
 L  packing[43]
 L  packing[44]
 L  packing[45]
 L  packing[46]
 L  packing[47]
 L  packing[48]
 L  packing[49]
 L  R63     
COLUMNS
    MARKER    'MARKER'                 'INTORG'
    x[1]      OBJ       93
    x[1]      packing[0]  57
    x[1]      packing[1]  95
    x[1]      packing[3]  105
    x[1]      packing[4]  43
    x[1]      packing[5]  155
    x[1]      packing[6]  171
    x[1]      packing[7]  172
    x[1]      packing[8]  135
    x[1]      packing[10]  160
    x[1]      packing[11]  94
    x[1]      packing[12]  179
    x[1]      packing[13]  163
    x[1]      packing[14]  135
    x[1]      packing[15]  49
    x[1]      packing[16]  182
    x[1]      packing[17]  5
    x[1]      packing[18]  78
    x[1]      packing[19]  2
    x[1]      packing[20]  130
    x[1]      packing[21]  20
    x[1]      packing[23]  7
    x[1]      packing[24]  22
    x[1]      packing[25]  89
    x[1]      packing[27]  109
    x[1]      packing[29]  142
    x[1]      packing[30]  180
    x[1]      packing[32]  40
    x[1]      packing[33]  20
    x[1]      packing[34]  41
    x[1]      packing[36]  118
    x[1]      packing[37]  68
    x[1]      packing[38]  40
    x[1]      packing[39]  58
    x[1]      packing[40]  66
    x[1]      packing[41]  117
    x[1]      packing[42]  183
    x[1]      packing[44]  136
    x[1]      packing[45]  191
    x[1]      packing[46]  182
    x[1]      packing[48]  4
    x[1]      packing[49]  173
    x[2]      OBJ       6
    x[2]      packing[1]  140
    x[2]      packing[3]  25
    x[2]      packing[5]  133
    x[2]      packing[6]  74
    x[2]      packing[7]  191
    x[2]      packing[8]  20
    x[2]      packing[9]  178
    x[2]      packing[10]  130
    x[2]      packing[11]  63
    x[2]      packing[14]  110
    x[2]      packing[15]  140
    x[2]      packing[16]  99
    x[2]      packing[17]  142
    x[2]      packing[19]  34
    x[2]      packing[20]  79
    x[2]      packing[21]  30
    x[2]      packing[22]  179
    x[2]      packing[23]  199
    x[2]      packing[24]  158
    x[2]      packing[26]  164
    x[2]      packing[29]  190
    x[2]      packing[30]  53
    x[2]      packing[31]  173
    x[2]      packing[35]  146
    x[2]      packing[36]  83
    x[2]      packing[37]  11
    x[2]      packing[40]  11
    x[2]      packing[43]  56
    x[2]      packing[44]  54
    x[2]      packing[45]  30
    x[2]      packing[47]  118
    x[2]      packing[48]  22
    x[2]      packing[49]  27
    x[3]      OBJ       109
    x[3]      packing[0]  111
    x[3]      packing[1]  189
    x[3]      packing[3]  37
    x[3]      packing[9]  165
    x[3]      packing[10]  136
    x[3]      packing[12]  133
    x[3]      packing[13]  49
    x[3]      packing[14]  189
    x[3]      packing[15]  86
    x[3]      packing[16]  59
    x[3]      packing[17]  37
    x[3]      packing[19]  143
    x[3]      packing[21]  66
    x[3]      packing[23]  100
    x[3]      packing[24]  8
    x[3]      packing[25]  155
    x[3]      packing[26]  24
    x[3]      packing[27]  49
    x[3]      packing[28]  199
    x[3]      packing[29]  152
    x[3]      packing[31]  123
    x[3]      packing[33]  58
    x[3]      packing[34]  100
    x[3]      packing[36]  150
    x[3]      packing[37]  125
    x[3]      packing[38]  26
    x[3]      packing[39]  15
    x[3]      packing[40]  125
    x[3]      packing[42]  135
    x[3]      packing[44]  137
    x[3]      packing[45]  45
    x[3]      packing[46]  100
    x[3]      packing[48]  171
    x[3]      packing[49]  33
    x[4]      OBJ       156
    x[4]      packing[1]  127
    x[4]      packing[2]  23
    x[4]      packing[4]  93
    x[4]      packing[5]  1
    x[4]      packing[7]  27
    x[4]      packing[8]  64
    x[4]      packing[9]  181
    x[4]      packing[10]  178
    x[4]      packing[12]  111
    x[4]      packing[13]  143
    x[4]      packing[14]  166
    x[4]      packing[15]  77
    x[4]      packing[16]  30
    x[4]      packing[18]  28
    x[4]      packing[19]  30
    x[4]      packing[20]  90
    x[4]      packing[21]  89
    x[4]      packing[22]  66
    x[4]      packing[23]  166
    x[4]      packing[24]  99
    x[4]      packing[25]  117
    x[4]      packing[26]  160
    x[4]      packing[27]  175
    x[4]      packing[28]  53
    x[4]      packing[29]  142
    x[4]      packing[30]  135
    x[4]      packing[34]  22
    x[4]      packing[36]  186
    x[4]      packing[37]  31
    x[4]      packing[38]  92
    x[4]      packing[39]  166
    x[4]      packing[40]  68
    x[4]      packing[41]  195
    x[4]      packing[43]  95
    x[4]      packing[45]  114
    x[4]      packing[46]  23
    x[4]      packing[49]  143
    x[4]      R63       1
    x[5]      OBJ       15
    x[5]      packing[0]  92
    x[5]      packing[3]  123
    x[5]      packing[5]  72
    x[5]      packing[6]  82
    x[5]      packing[7]  112
    x[5]      packing[9]  160
    x[5]      packing[10]  68
    x[5]      packing[11]  28
    x[5]      packing[12]  168
    x[5]      packing[13]  90
    x[5]      packing[14]  23
    x[5]      packing[16]  106
    x[5]      packing[17]  66
    x[5]      packing[19]  119
    x[5]      packing[20]  47
    x[5]      packing[21]  152
    x[5]      packing[22]  144
    x[5]      packing[23]  89
    x[5]      packing[24]  56
    x[5]      packing[26]  188
    x[5]      packing[27]  59
    x[5]      packing[28]  124
    x[5]      packing[29]  32
    x[5]      packing[30]  161
    x[5]      packing[31]  52
    x[5]      packing[33]  27
    x[5]      packing[35]  118
    x[5]      packing[36]  74
    x[5]      packing[37]  189
    x[5]      packing[38]  169
    x[5]      packing[39]  19
    x[5]      packing[40]  30
    x[5]      packing[41]  149
    x[5]      packing[42]  72
    x[5]      packing[44]  26
    x[5]      packing[45]  170
    x[5]      packing[46]  19
    x[5]      packing[47]  45
    x[5]      packing[48]  53
    x[6]      OBJ       5
    x[6]      packing[0]  59
    x[6]      packing[1]  11
    x[6]      packing[2]  106
    x[6]      packing[3]  132
    x[6]      packing[5]  158
    x[6]      packing[7]  20
    x[6]      packing[8]  5
    x[6]      packing[9]  156
    x[6]      packing[10]  155
    x[6]      packing[11]  186
    x[6]      packing[12]  74
    x[6]      packing[13]  131
    x[6]      packing[14]  149
    x[6]      packing[15]  153
    x[6]      packing[16]  23
    x[6]      packing[20]  178
    x[6]      packing[21]  5
    x[6]      packing[22]  147
    x[6]      packing[23]  166
    x[6]      packing[25]  179
    x[6]      packing[27]  50
    x[6]      packing[31]  46
    x[6]      packing[33]  196
    x[6]      packing[35]  48
    x[6]      packing[36]  165
    x[6]      packing[39]  190
    x[6]      packing[44]  16
    x[6]      packing[45]  175
    x[6]      packing[46]  21
    x[6]      packing[47]  31
    x[6]      packing[48]  131
    x[6]      packing[49]  72
    x[7]      OBJ       187
    x[7]      packing[0]  138
    x[7]      packing[1]  46
    x[7]      packing[2]  173
    x[7]      packing[3]  95
    x[7]      packing[4]  14
    x[7]      packing[5]  25
    x[7]      packing[6]  106
    x[7]      packing[9]  156
    x[7]      packing[10]  147
    x[7]      packing[11]  177
    x[7]      packing[12]  112
    x[7]      packing[13]  188
    x[7]      packing[15]  84
    x[7]      packing[17]  142
    x[7]      packing[18]  126
    x[7]      packing[21]  196
    x[7]      packing[22]  33
    x[7]      packing[23]  184
    x[7]      packing[25]  105
    x[7]      packing[26]  12
    x[7]      packing[27]  155
    x[7]      packing[28]  45
    x[7]      packing[30]  108
    x[7]      packing[31]  31
    x[7]      packing[32]  120
    x[7]      packing[34]  16
    x[7]      packing[36]  17
    x[7]      packing[37]  3
    x[7]      packing[38]  131
    x[7]      packing[39]  88
    x[7]      packing[41]  34
    x[7]      packing[42]  129
    x[7]      packing[43]  81
    x[7]      packing[45]  59
    x[7]      packing[47]  149
    x[7]      packing[48]  30
    x[7]      R63       1
    x[8]      OBJ       39
    x[8]      packing[2]  126
    x[8]      packing[3]  34
    x[8]      packing[4]  177
    x[8]      packing[5]  184
    x[8]      packing[7]  155
    x[8]      packing[9]  195
    x[8]      packing[10]  194
    x[8]      packing[11]  34
    x[8]      packing[12]  3
    x[8]      packing[13]  102
    x[8]      packing[14]  116
    x[8]      packing[15]  78
    x[8]      packing[17]  63
    x[8]      packing[18]  159
    x[8]      packing[19]  41
    x[8]      packing[20]  88
    x[8]      packing[22]  7
    x[8]      packing[23]  81
    x[8]      packing[24]  53
    x[8]      packing[25]  113
    x[8]      packing[27]  50
    x[8]      packing[28]  119
    x[8]      packing[29]  21
    x[8]      packing[31]  99
    x[8]      packing[33]  7
    x[8]      packing[35]  98
    x[8]      packing[36]  107
    x[8]      packing[39]  186
    x[8]      packing[41]  175
    x[8]      packing[42]  68
    x[8]      packing[45]  26
    x[8]      packing[46]  120
    x[8]      packing[48]  75
    x[9]      OBJ       69
    x[9]      packing[0]  167
    x[9]      packing[1]  187
    x[9]      packing[2]  24
    x[9]      packing[5]  123
    x[9]      packing[6]  176
    x[9]      packing[7]  81
    x[9]      packing[8]  35
    x[9]      packing[9]  158
    x[9]      packing[10]  186
    x[9]      packing[12]  88
    x[9]      packing[14]  6
    x[9]      packing[15]  132
    x[9]      packing[16]  90
    x[9]      packing[18]  124
    x[9]      packing[19]  23
    x[9]      packing[20]  116
    x[9]      packing[23]  191
    x[9]      packing[24]  11
    x[9]      packing[25]  129
    x[9]      packing[26]  24
    x[9]      packing[28]  42
    x[9]      packing[29]  131
    x[9]      packing[30]  34
    x[9]      packing[31]  113
    x[9]      packing[33]  185
    x[9]      packing[34]  109
    x[9]      packing[36]  9
    x[9]      packing[38]  58
    x[9]      packing[39]  94
    x[9]      packing[40]  94
    x[9]      packing[41]  2
    x[9]      packing[43]  153
    x[9]      packing[44]  141
    x[9]      packing[45]  186
    x[9]      packing[46]  88
    x[9]      packing[48]  23
    x[9]      R63       1
    x[10]     OBJ       3
    x[10]     packing[0]  49
    x[10]     packing[1]  24
    x[10]     packing[2]  137
    x[10]     packing[3]  113
    x[10]     packing[7]  15
    x[10]     packing[8]  82
    x[10]     packing[9]  136
    x[10]     packing[10]  186
    x[10]     packing[11]  103
    x[10]     packing[13]  143
    x[10]     packing[14]  184
    x[10]     packing[15]  57
    x[10]     packing[20]  8
    x[10]     packing[21]  188
    x[10]     packing[23]  153
    x[10]     packing[24]  92
    x[10]     packing[26]  28
    x[10]     packing[27]  114
    x[10]     packing[29]  3
    x[10]     packing[32]  164
    x[10]     packing[34]  149
    x[10]     packing[35]  101
    x[10]     packing[37]  144
    x[10]     packing[38]  195
    x[10]     packing[39]  130
    x[10]     packing[41]  58
    x[10]     packing[42]  179
    x[10]     packing[44]  161
    x[10]     packing[45]  104
    x[10]     packing[46]  14
    x[10]     packing[47]  184
    x[10]     packing[49]  12
    x[11]     OBJ       185
    x[11]     packing[1]  58
    x[11]     packing[2]  29
    x[11]     packing[3]  187
    x[11]     packing[4]  126
    x[11]     packing[5]  51
    x[11]     packing[8]  141
    x[11]     packing[9]  40
    x[11]     packing[10]  26
    x[11]     packing[11]  108
    x[11]     packing[12]  90
    x[11]     packing[13]  144
    x[11]     packing[14]  72
    x[11]     packing[15]  36
    x[11]     packing[16]  61
    x[11]     packing[18]  69
    x[11]     packing[19]  10
    x[11]     packing[20]  20
    x[11]     packing[22]  112
    x[11]     packing[23]  133
    x[11]     packing[24]  112
    x[11]     packing[26]  122
    x[11]     packing[28]  181
    x[11]     packing[30]  65
    x[11]     packing[31]  45
    x[11]     packing[32]  147
    x[11]     packing[35]  113
    x[11]     packing[36]  130
    x[11]     packing[38]  68
    x[11]     packing[41]  77
    x[11]     packing[42]  132
    x[11]     packing[45]  122
    x[11]     packing[47]  71
    x[11]     packing[48]  14
    x[11]     packing[49]  118
    x[12]     OBJ       5
    x[12]     packing[0]  65
    x[12]     packing[1]  93
    x[12]     packing[2]  149
    x[12]     packing[5]  13
    x[12]     packing[6]  60
    x[12]     packing[7]  55
    x[12]     packing[8]  61
    x[12]     packing[9]  181
    x[12]     packing[10]  86
    x[12]     packing[11]  8
    x[12]     packing[15]  57
    x[12]     packing[16]  106
    x[12]     packing[18]  74
    x[12]     packing[19]  151
    x[12]     packing[21]  67
    x[12]     packing[22]  34
    x[12]     packing[27]  135
    x[12]     packing[31]  73
    x[12]     packing[33]  31
    x[12]     packing[34]  67
    x[12]     packing[35]  70
    x[12]     packing[37]  74
    x[12]     packing[38]  173
    x[12]     packing[40]  74
    x[12]     packing[41]  171
    x[12]     packing[42]  152
    x[12]     packing[44]  18
    x[12]     packing[46]  60
    x[12]     packing[49]  6
    x[13]     OBJ       124
    x[13]     packing[0]  55
    x[13]     packing[1]  184
    x[13]     packing[3]  197
    x[13]     packing[4]  175
    x[13]     packing[5]  140
    x[13]     packing[7]  175
    x[13]     packing[8]  13
    x[13]     packing[9]  107
    x[13]     packing[10]  81
    x[13]     packing[12]  150
    x[13]     packing[13]  170
    x[13]     packing[14]  187
    x[13]     packing[15]  134
    x[13]     packing[16]  24
    x[13]     packing[17]  73
    x[13]     packing[18]  172
    x[13]     packing[21]  100
    x[13]     packing[22]  97
    x[13]     packing[23]  124
    x[13]     packing[24]  129
    x[13]     packing[25]  93
    x[13]     packing[26]  180
    x[13]     packing[27]  191
    x[13]     packing[28]  36
    x[13]     packing[29]  159
    x[13]     packing[30]  101
    x[13]     packing[31]  169
    x[13]     packing[32]  126
    x[13]     packing[33]  141
    x[13]     packing[34]  50
    x[13]     packing[35]  40
    x[13]     packing[36]  150
    x[13]     packing[37]  95
    x[13]     packing[38]  31
    x[13]     packing[39]  141
    x[13]     packing[41]  154
    x[13]     packing[42]  53
    x[13]     packing[43]  119
    x[13]     packing[44]  187
    x[13]     packing[45]  190
    x[13]     packing[46]  13
    x[13]     packing[47]  130
    x[13]     packing[48]  61
    x[13]     R63       1
    x[14]     OBJ       116
    x[14]     packing[0]  17
    x[14]     packing[2]  188
    x[14]     packing[4]  100
    x[14]     packing[5]  128
    x[14]     packing[6]  77
    x[14]     packing[7]  103
    x[14]     packing[10]  117
    x[14]     packing[11]  31
    x[14]     packing[12]  168
    x[14]     packing[13]  89
    x[14]     packing[15]  173
    x[14]     packing[17]  103
    x[14]     packing[18]  86
    x[14]     packing[19]  89
    x[14]     packing[20]  16
    x[14]     packing[21]  94
    x[14]     packing[22]  84
    x[14]     packing[25]  85
    x[14]     packing[26]  168
    x[14]     packing[28]  107
    x[14]     packing[29]  133
    x[14]     packing[30]  8
    x[14]     packing[32]  82
    x[14]     packing[33]  88
    x[14]     packing[35]  23
    x[14]     packing[36]  84
    x[14]     packing[37]  99
    x[14]     packing[40]  17
    x[14]     packing[41]  70
    x[14]     packing[42]  147
    x[14]     packing[43]  28
    x[14]     packing[45]  120
    x[14]     packing[47]  83
    x[14]     packing[48]  170
    x[14]     packing[49]  83
    x[15]     OBJ       12
    x[15]     packing[0]  24
    x[15]     packing[1]  170
    x[15]     packing[2]  101
    x[15]     packing[4]  6
    x[15]     packing[5]  90
    x[15]     packing[6]  133
    x[15]     packing[7]  67
    x[15]     packing[8]  5
    x[15]     packing[10]  56
    x[15]     packing[11]  166
    x[15]     packing[12]  154
    x[15]     packing[13]  74
    x[15]     packing[17]  35
    x[15]     packing[18]  75
    x[15]     packing[21]  140
    x[15]     packing[23]  116
    x[15]     packing[24]  39
    x[15]     packing[27]  48
    x[15]     packing[28]  147
    x[15]     packing[29]  8
    x[15]     packing[30]  182
    x[15]     packing[31]  182
    x[15]     packing[32]  95
    x[15]     packing[34]  111
    x[15]     packing[35]  19
    x[15]     packing[36]  94
    x[15]     packing[37]  165
    x[15]     packing[38]  25
    x[15]     packing[40]  150
    x[15]     packing[41]  43
    x[15]     packing[42]  142
    x[15]     packing[43]  12
    x[15]     packing[44]  78
    x[15]     packing[48]  94
    x[15]     packing[49]  76
    x[16]     OBJ       93
    x[16]     packing[1]  14
    x[16]     packing[2]  125
    x[16]     packing[3]  186
    x[16]     packing[4]  144
    x[16]     packing[5]  75
    x[16]     packing[6]  140
    x[16]     packing[8]  60
    x[16]     packing[9]  47
    x[16]     packing[13]  159
    x[16]     packing[14]  16
    x[16]     packing[15]  170
    x[16]     packing[16]  149
    x[16]     packing[17]  55
    x[16]     packing[18]  3
    x[16]     packing[19]  75
    x[16]     packing[20]  41
    x[16]     packing[21]  198
    x[16]     packing[23]  144
    x[16]     packing[26]  171
    x[16]     packing[27]  121
    x[16]     packing[28]  125
    x[16]     packing[29]  148
    x[16]     packing[30]  11
    x[16]     packing[32]  63
    x[16]     packing[33]  139
    x[16]     packing[34]  153
    x[16]     packing[35]  149
    x[16]     packing[36]  147
    x[16]     packing[37]  198
    x[16]     packing[38]  105
    x[16]     packing[40]  148
    x[16]     packing[43]  167
    x[16]     packing[44]  15
    x[16]     packing[45]  160
    x[16]     packing[46]  145
    x[16]     packing[47]  94
    x[16]     packing[49]  129
    x[17]     OBJ       29
    x[17]     packing[1]  164
    x[17]     packing[2]  37
    x[17]     packing[3]  91
    x[17]     packing[4]  1
    x[17]     packing[6]  145
    x[17]     packing[7]  155
    x[17]     packing[8]  129
    x[17]     packing[9]  166
    x[17]     packing[10]  185
    x[17]     packing[12]  51
    x[17]     packing[13]  47
    x[17]     packing[14]  45
    x[17]     packing[16]  157
    x[17]     packing[18]  85
    x[17]     packing[20]  67
    x[17]     packing[22]  49
    x[17]     packing[23]  106
    x[17]     packing[24]  162
    x[17]     packing[25]  87
    x[17]     packing[26]  170
    x[17]     packing[27]  150
    x[17]     packing[28]  199
    x[17]     packing[30]  23
    x[17]     packing[31]  193
    x[17]     packing[32]  114
    x[17]     packing[33]  134
    x[17]     packing[35]  11
    x[17]     packing[36]  180
    x[17]     packing[37]  188
    x[17]     packing[38]  32
    x[17]     packing[39]  95
    x[17]     packing[40]  188
    x[17]     packing[44]  140
    x[17]     packing[45]  36
    x[17]     packing[46]  61
    x[17]     packing[47]  10
    x[18]     OBJ       9
    x[18]     packing[0]  124
    x[18]     packing[1]  27
    x[18]     packing[2]  78
    x[18]     packing[3]  65
    x[18]     packing[4]  166
    x[18]     packing[5]  25
    x[18]     packing[6]  75
    x[18]     packing[7]  120
    x[18]     packing[8]  89
    x[18]     packing[10]  36
    x[18]     packing[11]  199
    x[18]     packing[12]  19
    x[18]     packing[13]  45
    x[18]     packing[14]  132
    x[18]     packing[15]  185
    x[18]     packing[17]  182
    x[18]     packing[18]  192
    x[18]     packing[20]  29
    x[18]     packing[21]  10
    x[18]     packing[22]  92
    x[18]     packing[23]  190
    x[18]     packing[24]  91
    x[18]     packing[25]  174
    x[18]     packing[27]  23
    x[18]     packing[28]  51
    x[18]     packing[30]  119
    x[18]     packing[31]  90
    x[18]     packing[32]  61
    x[18]     packing[33]  8
    x[18]     packing[34]  182
    x[18]     packing[35]  21
    x[18]     packing[36]  138
    x[18]     packing[37]  151
    x[18]     packing[38]  194
    x[18]     packing[40]  42
    x[18]     packing[41]  109
    x[18]     packing[43]  131
    x[18]     packing[44]  71
    x[18]     packing[46]  29
    x[18]     packing[48]  48
    x[19]     OBJ       120
    x[19]     packing[0]  95
    x[19]     packing[4]  114
    x[19]     packing[5]  134
    x[19]     packing[6]  72
    x[19]     packing[7]  129
    x[19]     packing[8]  15
    x[19]     packing[9]  27
    x[19]     packing[10]  160
    x[19]     packing[11]  174
    x[19]     packing[12]  28
    x[19]     packing[13]  4
    x[19]     packing[14]  171
    x[19]     packing[15]  185
    x[19]     packing[16]  121
    x[19]     packing[20]  187
    x[19]     packing[21]  119
    x[19]     packing[23]  47
    x[19]     packing[25]  110
    x[19]     packing[26]  133
    x[19]     packing[28]  177
    x[19]     packing[30]  168
    x[19]     packing[31]  197
    x[19]     packing[33]  63
    x[19]     packing[34]  40
    x[19]     packing[35]  152
    x[19]     packing[36]  91
    x[19]     packing[37]  60
    x[19]     packing[38]  160
    x[19]     packing[39]  182
    x[19]     packing[40]  26
    x[19]     packing[42]  44
    x[19]     packing[44]  25
    x[19]     packing[45]  62
    x[19]     packing[47]  25
    x[19]     packing[48]  40
    x[19]     packing[49]  126
    x[20]     OBJ       85
    x[20]     packing[0]  86
    x[20]     packing[3]  73
    x[20]     packing[5]  42
    x[20]     packing[6]  85
    x[20]     packing[9]  189
    x[20]     packing[11]  138
    x[20]     packing[12]  30
    x[20]     packing[14]  47
    x[20]     packing[16]  99
    x[20]     packing[17]  16
    x[20]     packing[19]  64
    x[20]     packing[21]  151
    x[20]     packing[22]  87
    x[20]     packing[24]  38
    x[20]     packing[25]  118
    x[20]     packing[26]  157
    x[20]     packing[27]  52
    x[20]     packing[28]  156
    x[20]     packing[29]  196
    x[20]     packing[31]  68
    x[20]     packing[32]  183
    x[20]     packing[33]  184
    x[20]     packing[35]  74
    x[20]     packing[36]  164
    x[20]     packing[40]  137
    x[20]     packing[41]  68
    x[20]     packing[42]  181
    x[20]     packing[43]  37
    x[20]     packing[45]  170
    x[20]     packing[46]  173
    x[20]     packing[47]  16
    x[20]     packing[48]  5
    x[20]     packing[49]  136
    MARKER    'MARKER'                 'INTEND'
RHS
    RHS1      packing[0]  570
    RHS1      packing[1]  765
    RHS1      packing[2]  648
    RHS1      packing[3]  732
    RHS1      packing[4]  580
    RHS1      packing[5]  775
    RHS1      packing[6]  698
    RHS1      packing[7]  789
    RHS1      packing[8]  427
    RHS1      packing[9]  1121
    RHS1      packing[10]  1144
    RHS1      packing[11]  755
    RHS1      packing[12]  779
    RHS1      packing[13]  871
    RHS1      packing[14]  874
    RHS1      packing[15]  898
    RHS1      packing[16]  653
    RHS1      packing[17]  460
    RHS1      packing[18]  636
    RHS1      packing[19]  391
    RHS1      packing[20]  548
    RHS1      packing[21]  813
    RHS1      packing[22]  566
    RHS1      packing[23]  1098
    RHS1      packing[24]  535
    RHS1      packing[25]  777
    RHS1      packing[26]  851
    RHS1      packing[27]  741
    RHS1      packing[28]  881
    RHS1      packing[29]  729
    RHS1      packing[30]  674
    RHS1      packing[31]  827
    RHS1      packing[32]  598
    RHS1      packing[33]  641
    RHS1      packing[34]  520
    RHS1      packing[35]  592
    RHS1      packing[36]  1044
    RHS1      packing[37]  801
    RHS1      packing[38]  750
    RHS1      packing[39]  682
    RHS1      packing[40]  588
    RHS1      packing[41]  711
    RHS1      packing[42]  809
    RHS1      packing[43]  440
    RHS1      packing[44]  603
    RHS1      packing[45]  980
    RHS1      packing[46]  524
    RHS1      packing[47]  478
    RHS1      packing[48]  471
    RHS1      packing[49]  567
    RHS1      R63       3
BOUNDS
 BV BND1      x[1]    
 BV BND1      x[2]    
 BV BND1      x[3]    
 BV BND1      x[4]    
 BV BND1      x[5]    
 BV BND1      x[6]    
 BV BND1      x[7]    
 BV BND1      x[8]    
 BV BND1      x[9]    
 BV BND1      x[10]   
 BV BND1      x[11]   
 BV BND1      x[12]   
 BV BND1      x[13]   
 BV BND1      x[14]   
 BV BND1      x[15]   
 BV BND1      x[16]   
 BV BND1      x[17]   
 BV BND1      x[18]   
 BV BND1      x[19]   
 BV BND1      x[20]   
ENDATA
